p cnf 50 80
-2 -43 21 0
38 2 -40 0
2 47 43 0
-23 -20 35 0
39 -12 35 0
36 33 4 0
-4 46 10 0
-36 13 4 0
19 -45 40 0
-12 46 -21 0
4 -49 33 0
37 -15 41 0
25 -3 -13 0
-41 -8 27 0
41 -34 -29 0
-43 30 42 0
-38 -43 -5 0
26 -19 -10 0
-27 -9 28 0
4 -6 7 0
-20 18 -31 0
39 -20 -27 0
28 50 -30 0
-43 8 40 0
10 7 -6 0
48 -7 19 0
4 26 20 0
1 -26 -28 0
17 13 -46 0
37 16 9 0
-46 -20 -10 0
25 -37 -39 0
-11 -4 38 0
-4 16 5 0
-42 32 -14 0
32 -9 -45 0
-41 31 -1 0
-24 -17 33 0
30 11 -19 0
-25 -5 -20 0
4 -32 -24 0
37 -15 13 0
-43 -40 18 0
1 7 -3 0
-5 33 -40 0
-11 37 -41 0
-41 23 49 0
-13 -17 -40 0
46 5 -8 0
-38 -29 -48 0
x -1 2 -4 5 8 9 -10 -13 14 16 -17 -19 20 21 -23 25 -27 -28 -30 -32 -34 37 38 -39 41 -43 -44 45 0
x 1 -2 3 -4 5 6 -7 12 -17 20 23 -24 -26 -28 29 30 -32 -33 -34 35 36 37 -39 40 -44 -48 -49 50 0
x 3 4 5 6 -7 8 10 -12 13 -14 15 16 18 19 28 30 32 33 -38 40 -41 -44 -45 -46 -48 -49 0
x -1 -4 5 6 8 10 11 14 -17 -19 22 23 -24 25 29 32 33 -37 40 43 44 48 0
x 1 -2 -3 4 5 6 -8 -11 13 14 15 -17 -19 20 23 -26 -28 29 -30 32 35 -36 40 42 45 48 50 0
x -2 -3 9 11 14 -15 -16 -17 -18 21 -23 -24 -25 -27 28 31 -34 -35 -36 -37 38 -46 47 -48 -49 0
x 2 -6 8 10 -11 -14 -16 20 -22 29 -30 37 38 43 -45 -46 -47 0
x 1 -5 -6 15 -16 17 19 22 -23 -25 26 -28 29 31 -32 -33 -34 35 -36 -38 -41 42 44 45 47 48 50 0
x 1 5 6 -7 -9 13 -14 -15 20 21 -27 -28 -32 35 38 -39 -40 42 -43 44 -45 -46 47 48 49 50 0
x 2 5 6 7 8 -9 10 -11 12 15 17 18 21 -22 23 -26 27 28 29 -30 -33 35 40 -41 42 48 0
x 3 4 -6 8 9 -12 14 -16 -18 -21 -22 -23 27 -29 -33 -35 -36 -37 -38 -41 44 -46 47 -49 0
x -1 -3 4 5 -7 8 9 10 -11 12 -18 -19 20 -21 22 -23 -26 27 -29 -30 31 -32 34 35 -38 -41 43 49 0
x -4 6 7 -8 -10 -11 12 13 -14 -18 -20 -22 23 26 27 -28 -31 32 33 34 35 36 -37 -40 41 42 -47 -48 -49 0
x 1 3 -5 6 -8 -9 -12 14 15 16 -17 -19 20 21 24 -25 29 30 32 -34 36 -38 40 -41 43 47 -48 -49 0
x 3 4 -7 8 12 -14 15 17 18 19 -23 24 25 27 32 35 -38 -39 41 -43 -45 -46 48 0
x 2 -4 -5 7 9 -11 13 14 16 17 -18 -20 22 -24 -27 -29 30 31 -32 33 -35 39 41 -43 -44 -46 -49 0
x -1 -3 4 11 13 16 18 -19 20 25 28 -29 31 32 33 -34 -37 39 -40 -41 44 -45 -47 -48 -49 0
x 2 6 -8 9 10 11 -12 17 18 -20 -21 22 23 24 -25 -26 28 29 30 -33 34 -35 -36 -40 41 -43 44 -45 -46 -48 -50 0
x 4 -6 -7 8 -12 -15 19 -21 -22 25 27 -28 -30 33 35 38 -39 -42 -44 -46 47 48 -50 0
x 2 3 -6 11 -12 16 -20 -21 -23 24 25 -30 -36 -37 -38 39 41 42 -46 48 -50 0
x 3 4 6 10 12 13 14 16 17 -19 -23 -24 -29 -31 -33 -36 -38 -39 -41 42 -45 48 -49 0
x -3 4 5 -8 9 11 -12 -14 15 -20 -25 27 -29 30 -33 -34 39 41 -42 -47 50 0
x 2 -4 5 6 -8 9 10 11 12 -14 -15 -17 -18 20 -22 -23 -25 28 -29 -31 37 -40 -41 -42 -43 -45 46 -50 0
x 1 -3 5 6 -7 -9 10 11 -13 14 19 -22 24 -26 -29 -34 38 39 40 -45 48 -49 0
x -1 2 4 -5 7 9 -10 15 20 -22 -23 -27 28 -29 -31 -33 36 37 38 41 42 -43 -44 49 50 0
x -2 -4 -5 -7 8 13 -15 17 -19 21 -22 -24 28 31 32 -35 -36 -37 39 40 41 -44 46 47 50 0
x -1 -5 -6 7 -9 11 -12 -14 -15 -16 19 21 22 -23 -25 -27 -29 -30 34 -37 38 39 40 42 44 45 -46 -47 -49 50 0
x -4 -5 -6 -10 -11 -13 -14 16 -18 22 23 24 26 29 31 -32 -35 -40 43 45 -47 -49 0
x -1 3 -6 8 9 10 13 14 15 17 18 21 22 -23 -25 26 -29 -31 41 -43 -44 -50 0
x 5 -7 -8 9 -10 -13 14 15 -16 19 -20 -24 27 30 31 33 34 35 39 40 -42 -43 -44 46 47 -49 0
